# Objective value = 34
WA1n 0
WA1p 0
WA2n 1
WA2p 0
WB1n 0
WB1p 0
WB2n 0
WB2p 1
WC1n 1
WC1p 0
WD1n 1
WD1p 0
WD2n 1
WD2p 0
WE1n 0
WE1p 1
WE2n 0
WE2p 1
WF1n 0
WF1p 1
WF2n 0
WF2p 1
WG1n 0
WG1p 1
WG2n 0
WG2p 1
WH1n 7
WH1p 0
WI1n 7
WI1p 0
WT1n 1
WT1p 0
WT2n 1
WT2p 0
5 7
a 0
b 0
c 0
d 1
e 0
f 0
g 0
h 1
i 1
j 1
k 1
l 1
m 1
n 0
o 0
p 0
q 0
